
===== New CPLEX run =====
Instance: /home/yorig/tuner/mpils-tests/instances/miplib/medium-1/neos-3555904-turama.mps
Config: /scratch/yorig/mpils-results-grid-seconds-10-no-mip-start/medium-1/4proc/seed-3/10_neos-3555904-turama_seed-3_20260503_044838/expansion/config_param_CPXPARAM_MIP_Strategy_SubAlgorithm_2_iter_2.prm
========================

Selected objective sense:  MINIMIZE
Selected objective  name:  Obj
Selected RHS        name:  RHS
Selected bound      name:  Bound
Version identifier: 22.1.2.0 | 2024-11-26 | 0edbb82fd
CPXPARAM_Threads                                 8
CPXPARAM_Parallel                                1
CPXPARAM_MIP_Cuts_Cliques                        2
CPXPARAM_MIP_Strategy_SubAlgorithm               2
CPXPARAM_MIP_Cuts_FlowCovers                     -1
CPXPARAM_MIP_Cuts_Implied                        -1
CPXPARAM_MIP_Cuts_GUBCovers                      1
CPXPARAM_MIP_Limits_GomoryCand                   10
CPXPARAM_MIP_Cuts_PathCut                        -1
CPXPARAM_MIP_Cuts_MIRCut                         1
CPXPARAM_MIP_Cuts_Disjunctive                    -1
CPXPARAM_Emphasis_MIP                            5
CPXPARAM_TimeLimit                               10
Tried aggregator 3 times.
MIP Presolve eliminated 88266 rows and 7696 columns.
MIP Presolve modified 93290 coefficients.
Aggregator did 11080 substitutions.
Reduced MIP has 47145 rows, 18685 columns, and 201232 nonzeros.
Reduced MIP has 18685 binaries, 0 generals, 0 SOSs, and 0 indicators.
Presolve time = 0.85 sec. (1435.97 ticks)
Found incumbent of value -33.200000 after 1.07 sec. (1819.77 ticks)
Probing fixed 2456 vars, tightened 0 bounds.
Probing changed sense of 6 constraints.
Probing time = 2.28 sec. (1226.29 ticks)
Tried aggregator 2 times.
MIP Presolve eliminated 9109 rows and 2642 columns.
MIP Presolve modified 5050 coefficients.
Aggregator did 410 substitutions.
Reduced MIP has 37623 rows, 15633 columns, and 145869 nonzeros.
Reduced MIP has 15633 binaries, 0 generals, 0 SOSs, and 0 indicators.
Presolve time = 0.32 sec. (568.73 ticks)
Probing fixed 494 vars, tightened 0 bounds.
Probing time = 1.09 sec. (600.78 ticks)
Tried aggregator 2 times.
Detecting symmetries...
MIP Presolve eliminated 3147 rows and 660 columns.
MIP Presolve modified 588 coefficients.
Aggregator did 651 substitutions.
Reduced MIP has 33825 rows, 14322 columns, and 131337 nonzeros.
Reduced MIP has 14322 binaries, 0 generals, 0 SOSs, and 0 indicators.
Presolve time = 0.29 sec. (517.68 ticks)
Probing time = 0.04 sec. (16.92 ticks)
Clique table members: 87904.
MIP emphasis: heuristic.
MIP search method: dynamic search.
Parallel mode: deterministic, using up to 8 threads.
Root relaxation solution time = 1.82 sec. (1414.56 ticks)

        Nodes                                         Cuts/
   Node  Left     Objective  IInf  Best Integer    Best Bound    ItCnt     Gap

*     0+    0                          -33.2000   -27044.9000              --- 
      0     0      -40.9500    62      -33.2000      -40.9500    14915   23.34%
*     0+   -1                          -34.7000      -40.9500            18.01%
      0     0  -1.00000e+75     0      -34.7000      -40.9500    14915   18.01%
Advanced basis not built.

GUB cover cuts applied:  0
Clique cuts applied:  0
Mixed integer rounding cuts applied:  0

Root node processing (before b&c):
  Real time             =   10.01 sec. (10890.96 ticks)
Parallel b&c, 8 threads:
  Real time             =    0.00 sec. (0.00 ticks)
  Sync time (average)   =    0.00 sec.
  Wait time (average)   =    0.00 sec.
                          ------------
Total (root+branch&cut) =   10.01 sec. (10890.96 ticks)
Gap: 18.01%
Upper bound: -34.7
Lower bound: -40.95
End of CPLEX run. Time: 10.0166 seconds

===== New CPLEX run =====
Instance: /home/yorig/tuner/mpils-tests/instances/miplib/medium-1/neos-3555904-turama.mps
Config: /scratch/yorig/mpils-results-grid-seconds-10-no-mip-start/medium-1/4proc/seed-3/10_neos-3555904-turama_seed-3_20260503_044838/expansion/config_param_CPXPARAM_MIP_Strategy_SubAlgorithm_3_iter_2.prm
========================

Selected objective sense:  MINIMIZE
Selected objective  name:  Obj
Selected RHS        name:  RHS
Selected bound      name:  Bound
Version identifier: 22.1.2.0 | 2024-11-26 | 0edbb82fd
CPXPARAM_Threads                                 8
CPXPARAM_Parallel                                1
CPXPARAM_MIP_Cuts_Cliques                        2
CPXPARAM_MIP_Strategy_SubAlgorithm               3
CPXPARAM_MIP_Cuts_FlowCovers                     -1
CPXPARAM_MIP_Cuts_Implied                        -1
CPXPARAM_MIP_Cuts_GUBCovers                      1
CPXPARAM_MIP_Limits_GomoryCand                   10
CPXPARAM_MIP_Cuts_PathCut                        -1
CPXPARAM_MIP_Cuts_MIRCut                         1
CPXPARAM_MIP_Cuts_Disjunctive                    -1
CPXPARAM_Emphasis_MIP                            5
CPXPARAM_TimeLimit                               10
Tried aggregator 3 times.
MIP Presolve eliminated 88266 rows and 7696 columns.
MIP Presolve modified 93290 coefficients.
Aggregator did 11080 substitutions.
Reduced MIP has 47145 rows, 18685 columns, and 201232 nonzeros.
Reduced MIP has 18685 binaries, 0 generals, 0 SOSs, and 0 indicators.
Presolve time = 0.86 sec. (1435.97 ticks)
Found incumbent of value -33.200000 after 1.07 sec. (1819.77 ticks)
Probing fixed 2456 vars, tightened 0 bounds.
Probing changed sense of 6 constraints.
Probing time = 2.26 sec. (1226.29 ticks)
Tried aggregator 2 times.
MIP Presolve eliminated 9109 rows and 2642 columns.
MIP Presolve modified 5050 coefficients.
Aggregator did 410 substitutions.
Reduced MIP has 37623 rows, 15633 columns, and 145869 nonzeros.
Reduced MIP has 15633 binaries, 0 generals, 0 SOSs, and 0 indicators.
Presolve time = 0.32 sec. (568.73 ticks)
Probing fixed 494 vars, tightened 0 bounds.
Probing time = 1.22 sec. (600.78 ticks)
Tried aggregator 2 times.
Detecting symmetries...
MIP Presolve eliminated 3147 rows and 660 columns.
MIP Presolve modified 588 coefficients.
Aggregator did 651 substitutions.
Reduced MIP has 33825 rows, 14322 columns, and 131337 nonzeros.
Reduced MIP has 14322 binaries, 0 generals, 0 SOSs, and 0 indicators.
Presolve time = 0.29 sec. (517.68 ticks)
Probing time = 0.22 sec. (16.92 ticks)
Clique table members: 87904.
MIP emphasis: heuristic.
MIP search method: dynamic search.
Parallel mode: deterministic, using up to 8 threads.
Root relaxation solution time = 1.55 sec. (1414.56 ticks)

        Nodes                                         Cuts/
   Node  Left     Objective  IInf  Best Integer    Best Bound    ItCnt     Gap

*     0+    0                          -33.2000   -27044.9000              --- 
      0     0      -40.9500    62      -33.2000      -40.9500    14915   23.34%

GUB cover cuts applied:  0
Clique cuts applied:  0
Mixed integer rounding cuts applied:  0

Root node processing (before b&c):
  Real time             =   10.00 sec. (10382.79 ticks)
Parallel b&c, 8 threads:
  Real time             =    0.00 sec. (0.00 ticks)
  Sync time (average)   =    0.00 sec.
  Wait time (average)   =    0.00 sec.
                          ------------
Total (root+branch&cut) =   10.00 sec. (10382.79 ticks)
Gap: 23.34%
Upper bound: -33.2
Lower bound: -40.95
End of CPLEX run. Time: 10.0127 seconds

===== New CPLEX run =====
Instance: /home/yorig/tuner/mpils-tests/instances/miplib/medium-1/neos-3555904-turama.mps
Config: /scratch/yorig/mpils-results-grid-seconds-10-no-mip-start/medium-1/4proc/seed-3/10_neos-3555904-turama_seed-3_20260503_044838/expansion/config_param_CPXPARAM_MIP_Strategy_SubAlgorithm_4_iter_2.prm
========================

Selected objective sense:  MINIMIZE
Selected objective  name:  Obj
Selected RHS        name:  RHS
Selected bound      name:  Bound
Version identifier: 22.1.2.0 | 2024-11-26 | 0edbb82fd
CPXPARAM_Threads                                 8
CPXPARAM_Parallel                                1
CPXPARAM_MIP_Cuts_Cliques                        2
CPXPARAM_MIP_Strategy_SubAlgorithm               4
CPXPARAM_MIP_Cuts_FlowCovers                     -1
CPXPARAM_MIP_Cuts_Implied                        -1
CPXPARAM_MIP_Cuts_GUBCovers                      1
CPXPARAM_MIP_Limits_GomoryCand                   10
CPXPARAM_MIP_Cuts_PathCut                        -1
CPXPARAM_MIP_Cuts_MIRCut                         1
CPXPARAM_MIP_Cuts_Disjunctive                    -1
CPXPARAM_Emphasis_MIP                            5
CPXPARAM_TimeLimit                               10
Tried aggregator 3 times.
MIP Presolve eliminated 88266 rows and 7696 columns.
MIP Presolve modified 93290 coefficients.
Aggregator did 11080 substitutions.
Reduced MIP has 47145 rows, 18685 columns, and 201232 nonzeros.
Reduced MIP has 18685 binaries, 0 generals, 0 SOSs, and 0 indicators.
Presolve time = 0.85 sec. (1435.97 ticks)
Found incumbent of value -33.200000 after 1.07 sec. (1819.77 ticks)
Probing fixed 2456 vars, tightened 0 bounds.
Probing changed sense of 6 constraints.
Probing time = 2.25 sec. (1226.29 ticks)
Tried aggregator 2 times.
MIP Presolve eliminated 9109 rows and 2642 columns.
MIP Presolve modified 5050 coefficients.
Aggregator did 410 substitutions.
Reduced MIP has 37623 rows, 15633 columns, and 145869 nonzeros.
Reduced MIP has 15633 binaries, 0 generals, 0 SOSs, and 0 indicators.
Presolve time = 0.32 sec. (568.73 ticks)
Probing fixed 494 vars, tightened 0 bounds.
Probing time = 1.09 sec. (600.78 ticks)
Tried aggregator 2 times.
Detecting symmetries...
MIP Presolve eliminated 3147 rows and 660 columns.
MIP Presolve modified 588 coefficients.
Aggregator did 651 substitutions.
Reduced MIP has 33825 rows, 14322 columns, and 131337 nonzeros.
Reduced MIP has 14322 binaries, 0 generals, 0 SOSs, and 0 indicators.
Presolve time = 0.29 sec. (517.68 ticks)
Probing time = 0.06 sec. (16.92 ticks)
Clique table members: 87904.
MIP emphasis: heuristic.
MIP search method: dynamic search.
Parallel mode: deterministic, using up to 8 threads.
Root relaxation solution time = 1.57 sec. (1414.56 ticks)

        Nodes                                         Cuts/
   Node  Left     Objective  IInf  Best Integer    Best Bound    ItCnt     Gap

*     0+    0                          -33.2000   -27044.9000              --- 
      0     0      -40.9500    62      -33.2000      -40.9500    14915   23.34%
*     0+   -1                          -34.7000      -40.9500            18.01%
      0     0  -1.00000e+75     0      -34.7000      -40.9500    14915   18.01%
Advanced basis not built.

GUB cover cuts applied:  0
Clique cuts applied:  0
Mixed integer rounding cuts applied:  0

Root node processing (before b&c):
  Real time             =   10.01 sec. (11397.90 ticks)
Parallel b&c, 8 threads:
  Real time             =    0.00 sec. (0.00 ticks)
  Sync time (average)   =    0.00 sec.
  Wait time (average)   =    0.00 sec.
                          ------------
Total (root+branch&cut) =   10.01 sec. (11397.90 ticks)
Gap: 18.01%
Upper bound: -34.7
Lower bound: -40.95
End of CPLEX run. Time: 10.0192 seconds

===== New CPLEX run =====
Instance: /home/yorig/tuner/mpils-tests/instances/miplib/medium-1/neos-3555904-turama.mps
Config: /scratch/yorig/mpils-results-grid-seconds-10-no-mip-start/medium-1/4proc/seed-3/10_neos-3555904-turama_seed-3_20260503_044838/expansion/config_param_CPXPARAM_MIP_Strategy_SubAlgorithm_5_iter_2.prm
========================

Selected objective sense:  MINIMIZE
Selected objective  name:  Obj
Selected RHS        name:  RHS
Selected bound      name:  Bound
Version identifier: 22.1.2.0 | 2024-11-26 | 0edbb82fd
CPXPARAM_Threads                                 8
CPXPARAM_Parallel                                1
CPXPARAM_MIP_Cuts_Cliques                        2
CPXPARAM_MIP_Strategy_SubAlgorithm               5
CPXPARAM_MIP_Cuts_FlowCovers                     -1
CPXPARAM_MIP_Cuts_Implied                        -1
CPXPARAM_MIP_Cuts_GUBCovers                      1
CPXPARAM_MIP_Limits_GomoryCand                   10
CPXPARAM_MIP_Cuts_PathCut                        -1
CPXPARAM_MIP_Cuts_MIRCut                         1
CPXPARAM_MIP_Cuts_Disjunctive                    -1
CPXPARAM_Emphasis_MIP                            5
CPXPARAM_TimeLimit                               10
Tried aggregator 3 times.
MIP Presolve eliminated 88266 rows and 7696 columns.
MIP Presolve modified 93290 coefficients.
Aggregator did 11080 substitutions.
Reduced MIP has 47145 rows, 18685 columns, and 201232 nonzeros.
Reduced MIP has 18685 binaries, 0 generals, 0 SOSs, and 0 indicators.
Presolve time = 0.85 sec. (1435.97 ticks)
Found incumbent of value -33.200000 after 1.07 sec. (1819.77 ticks)
Probing fixed 2456 vars, tightened 0 bounds.
Probing changed sense of 6 constraints.
Probing time = 2.28 sec. (1226.29 ticks)
Tried aggregator 2 times.
MIP Presolve eliminated 9109 rows and 2642 columns.
MIP Presolve modified 5050 coefficients.
Aggregator did 410 substitutions.
Reduced MIP has 37623 rows, 15633 columns, and 145869 nonzeros.
Reduced MIP has 15633 binaries, 0 generals, 0 SOSs, and 0 indicators.
Presolve time = 0.32 sec. (568.73 ticks)
Probing fixed 494 vars, tightened 0 bounds.
Probing time = 1.09 sec. (600.78 ticks)
Tried aggregator 2 times.
Detecting symmetries...
MIP Presolve eliminated 3147 rows and 660 columns.
MIP Presolve modified 588 coefficients.
Aggregator did 651 substitutions.
Reduced MIP has 33825 rows, 14322 columns, and 131337 nonzeros.
Reduced MIP has 14322 binaries, 0 generals, 0 SOSs, and 0 indicators.
Presolve time = 0.29 sec. (517.68 ticks)
Probing time = 0.12 sec. (16.92 ticks)
Clique table members: 87904.
MIP emphasis: heuristic.
MIP search method: dynamic search.
Parallel mode: deterministic, using up to 8 threads.
Root relaxation solution time = 2.10 sec. (1414.56 ticks)

        Nodes                                         Cuts/
   Node  Left     Objective  IInf  Best Integer    Best Bound    ItCnt     Gap

*     0+    0                          -33.2000   -27044.9000              --- 
      0     0      -40.9500    62      -33.2000      -40.9500    14915   23.34%
Advanced basis not built.

GUB cover cuts applied:  0
Clique cuts applied:  0
Mixed integer rounding cuts applied:  0

Root node processing (before b&c):
  Real time             =   10.02 sec. (9551.08 ticks)
Parallel b&c, 8 threads:
  Real time             =    0.00 sec. (0.00 ticks)
  Sync time (average)   =    0.00 sec.
  Wait time (average)   =    0.00 sec.
                          ------------
Total (root+branch&cut) =   10.02 sec. (9551.08 ticks)
Gap: 23.34%
Upper bound: -33.2
Lower bound: -40.95
End of CPLEX run. Time: 10.0233 seconds

===== New CPLEX run =====
Instance: /home/yorig/tuner/mpils-tests/instances/miplib/medium-1/neos-3555904-turama.mps
Config: /scratch/yorig/mpils-results-grid-seconds-10-no-mip-start/medium-1/4proc/seed-3/10_neos-3555904-turama_seed-3_20260503_044838/expansion/config_param_CPXPARAM_Simplex_DGradient_1_iter_2.prm
========================

Selected objective sense:  MINIMIZE
Selected objective  name:  Obj
Selected RHS        name:  RHS
Selected bound      name:  Bound
Version identifier: 22.1.2.0 | 2024-11-26 | 0edbb82fd
CPXPARAM_Simplex_DGradient                       1
CPXPARAM_Threads                                 8
CPXPARAM_Parallel                                1
CPXPARAM_MIP_Cuts_Cliques                        2
CPXPARAM_MIP_Cuts_FlowCovers                     -1
CPXPARAM_MIP_Cuts_Implied                        -1
CPXPARAM_MIP_Cuts_GUBCovers                      1
CPXPARAM_MIP_Limits_GomoryCand                   10
CPXPARAM_MIP_Cuts_PathCut                        -1
CPXPARAM_MIP_Cuts_MIRCut                         1
CPXPARAM_MIP_Cuts_Disjunctive                    -1
CPXPARAM_Emphasis_MIP                            5
CPXPARAM_TimeLimit                               10
Tried aggregator 3 times.
MIP Presolve eliminated 88266 rows and 7696 columns.
MIP Presolve modified 93290 coefficients.
Aggregator did 11080 substitutions.
Reduced MIP has 47145 rows, 18685 columns, and 201232 nonzeros.
Reduced MIP has 18685 binaries, 0 generals, 0 SOSs, and 0 indicators.
Presolve time = 0.85 sec. (1435.97 ticks)
Found incumbent of value -33.200000 after 1.07 sec. (1819.77 ticks)
Probing fixed 2456 vars, tightened 0 bounds.
Probing changed sense of 6 constraints.
Probing time = 2.28 sec. (1226.29 ticks)
Tried aggregator 2 times.
MIP Presolve eliminated 9109 rows and 2642 columns.
MIP Presolve modified 5050 coefficients.
Aggregator did 410 substitutions.
Reduced MIP has 37623 rows, 15633 columns, and 145869 nonzeros.
Reduced MIP has 15633 binaries, 0 generals, 0 SOSs, and 0 indicators.
Presolve time = 0.32 sec. (568.73 ticks)
Probing fixed 494 vars, tightened 0 bounds.
Probing time = 1.11 sec. (600.78 ticks)
Tried aggregator 2 times.
Detecting symmetries...
MIP Presolve eliminated 3147 rows and 660 columns.
MIP Presolve modified 588 coefficients.
Aggregator did 651 substitutions.
Reduced MIP has 33825 rows, 14322 columns, and 131337 nonzeros.
Reduced MIP has 14322 binaries, 0 generals, 0 SOSs, and 0 indicators.
Presolve time = 0.29 sec. (517.68 ticks)
Probing time = 0.17 sec. (16.92 ticks)
Clique table members: 87904.
MIP emphasis: heuristic.
MIP search method: dynamic search.
Parallel mode: deterministic, using up to 8 threads.
Root relaxation solution time = 1.12 sec. (1002.78 ticks)

        Nodes                                         Cuts/
   Node  Left     Objective  IInf  Best Integer    Best Bound    ItCnt     Gap

*     0+    0                          -33.2000   -27044.9000              --- 
      0     0      -40.9500   299      -33.2000      -40.9500     9658   23.34%
*     0+   -1                          -34.7000      -40.9500            18.01%
      0     0  -1.00000e+75     0      -34.7000      -40.9500     9658   18.01%
Advanced basis not built.

GUB cover cuts applied:  0
Clique cuts applied:  0
Mixed integer rounding cuts applied:  0

Root node processing (before b&c):
  Real time             =   10.01 sec. (10648.43 ticks)
Parallel b&c, 8 threads:
  Real time             =    0.00 sec. (0.00 ticks)
  Sync time (average)   =    0.00 sec.
  Wait time (average)   =    0.00 sec.
                          ------------
Total (root+branch&cut) =   10.01 sec. (10648.43 ticks)
Gap: 18.01%
Upper bound: -34.7
Lower bound: -40.95
End of CPLEX run. Time: 10.0171 seconds

===== New CPLEX run =====
Instance: /home/yorig/tuner/mpils-tests/instances/miplib/medium-1/neos-3555904-turama.mps
Config: /scratch/yorig/mpils-results-grid-seconds-10-no-mip-start/medium-1/4proc/seed-3/10_neos-3555904-turama_seed-3_20260503_044838/expansion/config_param_CPXPARAM_Simplex_DGradient_2_iter_2.prm
========================

Selected objective sense:  MINIMIZE
Selected objective  name:  Obj
Selected RHS        name:  RHS
Selected bound      name:  Bound
Version identifier: 22.1.2.0 | 2024-11-26 | 0edbb82fd
CPXPARAM_Simplex_DGradient                       2
CPXPARAM_Threads                                 8
CPXPARAM_Parallel                                1
CPXPARAM_MIP_Cuts_Cliques                        2
CPXPARAM_MIP_Cuts_FlowCovers                     -1
CPXPARAM_MIP_Cuts_Implied                        -1
CPXPARAM_MIP_Cuts_GUBCovers                      1
CPXPARAM_MIP_Limits_GomoryCand                   10
CPXPARAM_MIP_Cuts_PathCut                        -1
CPXPARAM_MIP_Cuts_MIRCut                         1
CPXPARAM_MIP_Cuts_Disjunctive                    -1
CPXPARAM_Emphasis_MIP                            5
CPXPARAM_TimeLimit                               10
Tried aggregator 3 times.
MIP Presolve eliminated 88266 rows and 7696 columns.
MIP Presolve modified 93290 coefficients.
Aggregator did 11080 substitutions.
Reduced MIP has 47145 rows, 18685 columns, and 201232 nonzeros.
Reduced MIP has 18685 binaries, 0 generals, 0 SOSs, and 0 indicators.
Presolve time = 0.85 sec. (1435.97 ticks)
Found incumbent of value -33.200000 after 1.06 sec. (1819.77 ticks)
Probing fixed 2456 vars, tightened 0 bounds.
Probing changed sense of 6 constraints.
Probing time = 1.67 sec. (1226.29 ticks)
Tried aggregator 2 times.
MIP Presolve eliminated 9109 rows and 2642 columns.
MIP Presolve modified 5050 coefficients.
Aggregator did 410 substitutions.
Reduced MIP has 37623 rows, 15633 columns, and 145869 nonzeros.
Reduced MIP has 15633 binaries, 0 generals, 0 SOSs, and 0 indicators.
Presolve time = 0.32 sec. (568.73 ticks)
Probing fixed 494 vars, tightened 0 bounds.
Probing time = 0.84 sec. (600.78 ticks)
Tried aggregator 2 times.
Detecting symmetries...
MIP Presolve eliminated 3147 rows and 660 columns.
MIP Presolve modified 588 coefficients.
Aggregator did 651 substitutions.
Reduced MIP has 33825 rows, 14322 columns, and 131337 nonzeros.
Reduced MIP has 14322 binaries, 0 generals, 0 SOSs, and 0 indicators.
Presolve time = 0.29 sec. (517.68 ticks)
Probing time = 0.08 sec. (16.92 ticks)
Clique table members: 87904.
MIP emphasis: heuristic.
MIP search method: dynamic search.
Parallel mode: deterministic, using up to 8 threads.
Root relaxation solution time = 1.14 sec. (1414.56 ticks)

        Nodes                                         Cuts/
   Node  Left     Objective  IInf  Best Integer    Best Bound    ItCnt     Gap

*     0+    0                          -33.2000   -27044.9000              --- 
      0     0      -40.9500    62      -33.2000      -40.9500    14915   23.34%
*     0+   -1                          -34.7000      -40.9500            18.01%
      0     0  -1.00000e+75     0      -34.7000      -40.9500    14915   18.01%
Advanced basis not built.

GUB cover cuts applied:  0
Clique cuts applied:  0
Mixed integer rounding cuts applied:  0

Root node processing (before b&c):
  Real time             =   10.01 sec. (13325.16 ticks)
Parallel b&c, 8 threads:
  Real time             =    0.00 sec. (0.00 ticks)
  Sync time (average)   =    0.00 sec.
  Wait time (average)   =    0.00 sec.
                          ------------
Total (root+branch&cut) =   10.01 sec. (13325.16 ticks)
Gap: 18.01%
Upper bound: -34.7
Lower bound: -40.95
End of CPLEX run. Time: 10.017 seconds

===== New CPLEX run =====
Instance: /home/yorig/tuner/mpils-tests/instances/miplib/medium-1/neos-3555904-turama.mps
Config: /scratch/yorig/mpils-results-grid-seconds-10-no-mip-start/medium-1/4proc/seed-3/10_neos-3555904-turama_seed-3_20260503_044838/expansion/config_param_CPXPARAM_Simplex_DGradient_3_iter_2.prm
========================

Selected objective sense:  MINIMIZE
Selected objective  name:  Obj
Selected RHS        name:  RHS
Selected bound      name:  Bound
Version identifier: 22.1.2.0 | 2024-11-26 | 0edbb82fd
CPXPARAM_Simplex_DGradient                       3
CPXPARAM_Threads                                 8
CPXPARAM_Parallel                                1
CPXPARAM_MIP_Cuts_Cliques                        2
CPXPARAM_MIP_Cuts_FlowCovers                     -1
CPXPARAM_MIP_Cuts_Implied                        -1
CPXPARAM_MIP_Cuts_GUBCovers                      1
CPXPARAM_MIP_Limits_GomoryCand                   10
CPXPARAM_MIP_Cuts_PathCut                        -1
CPXPARAM_MIP_Cuts_MIRCut                         1
CPXPARAM_MIP_Cuts_Disjunctive                    -1
CPXPARAM_Emphasis_MIP                            5
CPXPARAM_TimeLimit                               10
Tried aggregator 3 times.
MIP Presolve eliminated 88266 rows and 7696 columns.
MIP Presolve modified 93290 coefficients.
Aggregator did 11080 substitutions.
Reduced MIP has 47145 rows, 18685 columns, and 201232 nonzeros.
Reduced MIP has 18685 binaries, 0 generals, 0 SOSs, and 0 indicators.
Presolve time = 0.85 sec. (1435.97 ticks)
Found incumbent of value -33.200000 after 1.07 sec. (1819.77 ticks)
Probing fixed 2456 vars, tightened 0 bounds.
Probing changed sense of 6 constraints.
Probing time = 2.28 sec. (1226.29 ticks)
Tried aggregator 2 times.
MIP Presolve eliminated 9109 rows and 2642 columns.
MIP Presolve modified 5050 coefficients.
Aggregator did 410 substitutions.
Reduced MIP has 37623 rows, 15633 columns, and 145869 nonzeros.
Reduced MIP has 15633 binaries, 0 generals, 0 SOSs, and 0 indicators.
Presolve time = 0.32 sec. (568.73 ticks)
Probing fixed 494 vars, tightened 0 bounds.
Probing time = 1.08 sec. (600.78 ticks)
Tried aggregator 2 times.
Detecting symmetries...
MIP Presolve eliminated 3147 rows and 660 columns.
MIP Presolve modified 588 coefficients.
Aggregator did 651 substitutions.
Reduced MIP has 33825 rows, 14322 columns, and 131337 nonzeros.
Reduced MIP has 14322 binaries, 0 generals, 0 SOSs, and 0 indicators.
Presolve time = 0.29 sec. (517.68 ticks)
Probing time = 0.08 sec. (16.92 ticks)
Clique table members: 87904.
MIP emphasis: heuristic.
MIP search method: dynamic search.
Parallel mode: deterministic, using up to 8 threads.
Root relaxation solution time = 1.93 sec. (1414.56 ticks)

        Nodes                                         Cuts/
   Node  Left     Objective  IInf  Best Integer    Best Bound    ItCnt     Gap

*     0+    0                          -33.2000   -27044.9000              --- 
      0     0      -40.9500    62      -33.2000      -40.9500    14915   23.34%
*     0+   -1                          -34.7000      -40.9500            18.01%
      0     0  -1.00000e+75     0      -34.7000      -40.9500    14915   18.01%
Advanced basis not built.

GUB cover cuts applied:  0
Clique cuts applied:  0
Mixed integer rounding cuts applied:  0

Root node processing (before b&c):
  Real time             =   10.01 sec. (10717.50 ticks)
Parallel b&c, 8 threads:
  Real time             =    0.00 sec. (0.00 ticks)
  Sync time (average)   =    0.00 sec.
  Wait time (average)   =    0.00 sec.
                          ------------
Total (root+branch&cut) =   10.01 sec. (10717.50 ticks)
Gap: 18.01%
Upper bound: -34.7
Lower bound: -40.95
End of CPLEX run. Time: 10.017 seconds

===== New CPLEX run =====
Instance: /home/yorig/tuner/mpils-tests/instances/miplib/medium-1/neos-3555904-turama.mps
Config: /scratch/yorig/mpils-results-grid-seconds-10-no-mip-start/medium-1/4proc/seed-3/10_neos-3555904-turama_seed-3_20260503_044838/expansion/config_param_CPXPARAM_Simplex_DGradient_4_iter_2.prm
========================

Selected objective sense:  MINIMIZE
Selected objective  name:  Obj
Selected RHS        name:  RHS
Selected bound      name:  Bound
Version identifier: 22.1.2.0 | 2024-11-26 | 0edbb82fd
CPXPARAM_Simplex_DGradient                       4
CPXPARAM_Threads                                 8
CPXPARAM_Parallel                                1
CPXPARAM_MIP_Cuts_Cliques                        2
CPXPARAM_MIP_Cuts_FlowCovers                     -1
CPXPARAM_MIP_Cuts_Implied                        -1
CPXPARAM_MIP_Cuts_GUBCovers                      1
CPXPARAM_MIP_Limits_GomoryCand                   10
CPXPARAM_MIP_Cuts_PathCut                        -1
CPXPARAM_MIP_Cuts_MIRCut                         1
CPXPARAM_MIP_Cuts_Disjunctive                    -1
CPXPARAM_Emphasis_MIP                            5
CPXPARAM_TimeLimit                               10
Tried aggregator 3 times.
MIP Presolve eliminated 88266 rows and 7696 columns.
MIP Presolve modified 93290 coefficients.
Aggregator did 11080 substitutions.
Reduced MIP has 47145 rows, 18685 columns, and 201232 nonzeros.
Reduced MIP has 18685 binaries, 0 generals, 0 SOSs, and 0 indicators.
Presolve time = 0.85 sec. (1435.97 ticks)
Found incumbent of value -33.200000 after 1.06 sec. (1819.77 ticks)
Probing fixed 2456 vars, tightened 0 bounds.
Probing changed sense of 6 constraints.
Probing time = 2.46 sec. (1226.29 ticks)
Tried aggregator 2 times.
MIP Presolve eliminated 9109 rows and 2642 columns.
MIP Presolve modified 5050 coefficients.
Aggregator did 410 substitutions.
Reduced MIP has 37623 rows, 15633 columns, and 145869 nonzeros.
Reduced MIP has 15633 binaries, 0 generals, 0 SOSs, and 0 indicators.
Presolve time = 0.32 sec. (568.73 ticks)
Probing fixed 494 vars, tightened 0 bounds.
Probing time = 1.09 sec. (600.78 ticks)
Tried aggregator 2 times.
Detecting symmetries...
MIP Presolve eliminated 3147 rows and 660 columns.
MIP Presolve modified 588 coefficients.
Aggregator did 651 substitutions.
Reduced MIP has 33825 rows, 14322 columns, and 131337 nonzeros.
Reduced MIP has 14322 binaries, 0 generals, 0 SOSs, and 0 indicators.
Presolve time = 0.29 sec. (517.68 ticks)
Probing time = 0.10 sec. (16.92 ticks)
Clique table members: 87904.
MIP emphasis: heuristic.
MIP search method: dynamic search.
Parallel mode: deterministic, using up to 8 threads.
Root relaxation solution time = 1.61 sec. (1414.56 ticks)

        Nodes                                         Cuts/
   Node  Left     Objective  IInf  Best Integer    Best Bound    ItCnt     Gap

*     0+    0                          -33.2000   -27044.9000              --- 
      0     0      -40.9500    62      -33.2000      -40.9500    14915   23.34%
*     0+   -1                          -34.7000      -40.9500            18.01%
      0     0  -1.00000e+75     0      -34.7000      -40.9500    14915   18.01%
Advanced basis not built.

GUB cover cuts applied:  0
Clique cuts applied:  0
Mixed integer rounding cuts applied:  0

Root node processing (before b&c):
  Real time             =   10.01 sec. (10906.97 ticks)
Parallel b&c, 8 threads:
  Real time             =    0.00 sec. (0.00 ticks)
  Sync time (average)   =    0.00 sec.
  Wait time (average)   =    0.00 sec.
                          ------------
Total (root+branch&cut) =   10.01 sec. (10906.97 ticks)
Gap: 18.01%
Upper bound: -34.7
Lower bound: -40.95
End of CPLEX run. Time: 10.0169 seconds

===== New CPLEX run =====
Instance: /home/yorig/tuner/mpils-tests/instances/miplib/medium-1/neos-3555904-turama.mps
Config: /scratch/yorig/mpils-results-grid-seconds-10-no-mip-start/medium-1/4proc/seed-3/10_neos-3555904-turama_seed-3_20260503_044838/expansion/config_param_CPXPARAM_Simplex_DGradient_5_iter_2.prm
========================

Selected objective sense:  MINIMIZE
Selected objective  name:  Obj
Selected RHS        name:  RHS
Selected bound      name:  Bound
Version identifier: 22.1.2.0 | 2024-11-26 | 0edbb82fd
CPXPARAM_Simplex_DGradient                       5
CPXPARAM_Threads                                 8
CPXPARAM_Parallel                                1
CPXPARAM_MIP_Cuts_Cliques                        2
CPXPARAM_MIP_Cuts_FlowCovers                     -1
CPXPARAM_MIP_Cuts_Implied                        -1
CPXPARAM_MIP_Cuts_GUBCovers                      1
CPXPARAM_MIP_Limits_GomoryCand                   10
CPXPARAM_MIP_Cuts_PathCut                        -1
CPXPARAM_MIP_Cuts_MIRCut                         1
CPXPARAM_MIP_Cuts_Disjunctive                    -1
CPXPARAM_Emphasis_MIP                            5
CPXPARAM_TimeLimit                               10
Tried aggregator 3 times.
MIP Presolve eliminated 88266 rows and 7696 columns.
MIP Presolve modified 93290 coefficients.
Aggregator did 11080 substitutions.
Reduced MIP has 47145 rows, 18685 columns, and 201232 nonzeros.
Reduced MIP has 18685 binaries, 0 generals, 0 SOSs, and 0 indicators.
Presolve time = 0.85 sec. (1435.97 ticks)
Found incumbent of value -33.200000 after 1.07 sec. (1819.77 ticks)
Probing fixed 2456 vars, tightened 0 bounds.
Probing changed sense of 6 constraints.
Probing time = 2.33 sec. (1226.29 ticks)
Tried aggregator 2 times.
MIP Presolve eliminated 9109 rows and 2642 columns.
MIP Presolve modified 5050 coefficients.
Aggregator did 410 substitutions.
Reduced MIP has 37623 rows, 15633 columns, and 145869 nonzeros.
Reduced MIP has 15633 binaries, 0 generals, 0 SOSs, and 0 indicators.
Presolve time = 0.32 sec. (568.73 ticks)
Probing fixed 494 vars, tightened 0 bounds.
Probing time = 1.10 sec. (600.78 ticks)
Tried aggregator 2 times.
Detecting symmetries...
MIP Presolve eliminated 3147 rows and 660 columns.
MIP Presolve modified 588 coefficients.
Aggregator did 651 substitutions.
Reduced MIP has 33825 rows, 14322 columns, and 131337 nonzeros.
Reduced MIP has 14322 binaries, 0 generals, 0 SOSs, and 0 indicators.
Presolve time = 0.29 sec. (517.68 ticks)
Probing time = 0.08 sec. (16.92 ticks)
Clique table members: 87904.
MIP emphasis: heuristic.
MIP search method: dynamic search.
Parallel mode: deterministic, using up to 8 threads.
Root relaxation solution time = 2.55 sec. (1414.56 ticks)

        Nodes                                         Cuts/
   Node  Left     Objective  IInf  Best Integer    Best Bound    ItCnt     Gap

*     0+    0                          -33.2000   -27044.9000              --- 
      0     0      -40.9500    62      -33.2000      -40.9500    14915   23.34%
*     0+   -1                          -34.7000      -40.9500            18.01%
      0     0  -1.00000e+75     0      -34.7000      -40.9500    14915   18.01%
Advanced basis not built.

GUB cover cuts applied:  0
Clique cuts applied:  0
Mixed integer rounding cuts applied:  0

Root node processing (before b&c):
  Real time             =   10.01 sec. (9505.03 ticks)
Parallel b&c, 8 threads:
  Real time             =    0.00 sec. (0.00 ticks)
  Sync time (average)   =    0.00 sec.
  Wait time (average)   =    0.00 sec.
                          ------------
Total (root+branch&cut) =   10.01 sec. (9505.03 ticks)
Gap: 18.01%
Upper bound: -34.7
Lower bound: -40.95
End of CPLEX run. Time: 10.0171 seconds
